# Solution for model boiling_srl_ilp
# Objective value = 5.0864564568973885e+00
Z_152_3_0 1
Z_152_3_1 0
Z_152_3_2 0
Z_152_3_3 0
Z_152_12_0 0
Z_152_12_1 0
Z_152_12_2 1
Z_152_12_3 0
Z_152_1_0 0
Z_152_1_1 0
Z_152_1_2 0
Z_152_1_3 0
Z_152_2_0 0
Z_152_2_1 0
Z_152_2_2 0
Z_152_2_3 1
Z_152_0_0 0
Z_152_0_1 1
Z_152_0_2 0
Z_152_0_3 0
Z_670_0_0 0
Z_670_0_1 0
Z_670_0_2 0
Z_670_0_3 1
Z_44_0_0 0
Z_44_0_1 0
Z_44_0_2 1
Z_44_0_3 0
Z_437_0_0 0
Z_437_0_1 0
Z_437_0_2 1
Z_437_0_3 0
Z_269_2_0 0
Z_269_2_1 0
Z_269_2_2 0
Z_269_2_3 0
Z_269_4_0 0
Z_269_4_1 0
Z_269_4_2 0
Z_269_4_3 0
Z_269_6_0 0
Z_269_6_1 0
Z_269_6_2 0
Z_269_6_3 0
Z_269_1_0 1
Z_269_1_1 0
Z_269_1_2 0
Z_269_1_3 0
Z_269_7_0 0
Z_269_7_1 0
Z_269_7_2 0
Z_269_7_3 0
Z_269_3_0 0
Z_269_3_1 0
Z_269_3_2 0
Z_269_3_3 1
Z_269_0_0 0
Z_269_0_1 0
Z_269_0_2 1
Z_269_0_3 0
Z_269_8_0 0
Z_269_8_1 0
Z_269_8_2 0
Z_269_8_3 0
Z_269_5_0 0
Z_269_5_1 1
Z_269_5_2 0
Z_269_5_3 0
Z_15_0_0 0
Z_15_0_1 1
Z_15_0_2 0
Z_15_0_3 0
Z_650_0_0 0
Z_650_0_1 0
Z_650_0_2 0
Z_650_0_3 1
Z_477_0_0 0
Z_477_0_1 0
Z_477_0_2 1
Z_477_0_3 0
